c colouring generated by benchmark framework
p edge 450 17343
v 1 13
v 2 17
v 3 1
v 4 13
v 5 13
v 6 1
v 7 8
v 8 14
v 9 17
v 10 12
v 11 11
v 12 2
v 13 10
v 14 3
v 15 30
v 16 22
v 17 3
v 18 32
v 19 6
v 20 2
v 21 5
v 22 3
v 23 31
v 24 23
v 25 21
v 26 24
v 27 29
v 28 25
v 29 13
v 30 4
v 31 4
v 32 0
v 33 32
v 34 6
v 35 8
v 36 19
v 37 20
v 38 2
v 39 6
v 40 0
v 41 5
v 42 16
v 43 16
v 44 3
v 45 12
v 46 6
v 47 4
v 48 4
v 49 18
v 50 19
v 51 28
v 52 12
v 53 13
v 54 3
v 55 0
v 56 15
v 57 18
v 58 29
v 59 19
v 60 23
v 61 4
v 62 11
v 63 11
v 64 1
v 65 19
v 66 23
v 67 12
v 68 13
v 69 6
v 70 17
v 71 27
v 72 21
v 73 25
v 74 19
v 75 12
v 76 9
v 77 11
v 78 7
v 79 19
v 80 2
v 81 20
v 82 1
v 83 8
v 84 17
v 85 4
v 86 0
v 87 10
v 88 18
v 89 10
v 90 31
v 91 9
v 92 4
v 93 9
v 94 10
v 95 23
v 96 20
v 97 3
v 98 1
v 99 9
v 100 3
v 101 28
v 102 30
v 103 11
v 104 8
v 105 0
v 106 16
v 107 5
v 108 6
v 109 0
v 110 5
v 111 10
v 112 30
v 113 0
v 114 15
v 115 22
v 116 23
v 117 26
v 118 16
v 119 10
v 120 19
v 121 7
v 122 6
v 123 1
v 124 8
v 125 20
v 126 18
v 127 24
v 128 9
v 129 15
v 130 14
v 131 9
v 132 2
v 133 22
v 134 32
v 135 25
v 136 17
v 137 3
v 138 16
v 139 20
v 140 0
v 141 2
v 142 9
v 143 18
v 144 15
v 145 7
v 146 29
v 147 13
v 148 1
v 149 6
v 150 29
v 151 17
v 152 1
v 153 6
v 154 13
v 155 21
v 156 26
v 157 3
v 158 12
v 159 5
v 160 16
v 161 22
v 162 30
v 163 25
v 164 14
v 165 0
v 166 27
v 167 27
v 168 8
v 169 6
v 170 20
v 171 4
v 172 10
v 173 13
v 174 18
v 175 12
v 176 24
v 177 9
v 178 13
v 179 28
v 180 24
v 181 4
v 182 11
v 183 8
v 184 5
v 185 4
v 186 12
v 187 11
v 188 31
v 189 17
v 190 2
v 191 24
v 192 3
v 193 20
v 194 22
v 195 14
v 196 19
v 197 4
v 198 19
v 199 8
v 200 25
v 201 9
v 202 28
v 203 5
v 204 26
v 205 7
v 206 11
v 207 3
v 208 19
v 209 21
v 210 20
v 211 21
v 212 3
v 213 20
v 214 7
v 215 31
v 216 3
v 217 4
v 218 7
v 219 24
v 220 14
v 221 13
v 222 7
v 223 14
v 224 20
v 225 10
v 226 12
v 227 12
v 228 24
v 229 10
v 230 5
v 231 7
v 232 1
v 233 19
v 234 7
v 235 0
v 236 13
v 237 3
v 238 5
v 239 25
v 240 14
v 241 5
v 242 0
v 243 8
v 244 16
v 245 24
v 246 6
v 247 1
v 248 18
v 249 1
v 250 21
v 251 13
v 252 7
v 253 5
v 254 11
v 255 3
v 256 18
v 257 11
v 258 2
v 259 5
v 260 25
v 261 10
v 262 10
v 263 22
v 264 31
v 265 18
v 266 24
v 267 2
v 268 31
v 269 1
v 270 6
v 271 20
v 272 16
v 273 7
v 274 12
v 275 21
v 276 32
v 277 16
v 278 29
v 279 28
v 280 24
v 281 6
v 282 22
v 283 6
v 284 2
v 285 31
v 286 20
v 287 32
v 288 11
v 289 19
v 290 30
v 291 22
v 292 16
v 293 9
v 294 3
v 295 25
v 296 27
v 297 2
v 298 7
v 299 12
v 300 21
v 301 24
v 302 22
v 303 13
v 304 12
v 305 23
v 306 2
v 307 15
v 308 11
v 309 14
v 310 17
v 311 18
v 312 3
v 313 12
v 314 22
v 315 24
v 316 10
v 317 9
v 318 14
v 319 26
v 320 15
v 321 18
v 322 1
v 323 32
v 324 3
v 325 28
v 326 20
v 327 15
v 328 4
v 329 18
v 330 16
v 331 17
v 332 1
v 333 23
v 334 24
v 335 26
v 336 4
v 337 2
v 338 23
v 339 4
v 340 7
v 341 10
v 342 18
v 343 15
v 344 14
v 345 2
v 346 14
v 347 25
v 348 2
v 349 12
v 350 21
v 351 20
v 352 29
v 353 7
v 354 8
v 355 21
v 356 1
v 357 11
v 358 26
v 359 27
v 360 17
v 361 5
v 362 32
v 363 29
v 364 15
v 365 26
v 366 25
v 367 4
v 368 13
v 369 11
v 370 7
v 371 26
v 372 15
v 373 18
v 374 22
v 375 12
v 376 2
v 377 5
v 378 8
v 379 24
v 380 16
v 381 11
v 382 22
v 383 6
v 384 26
v 385 8
v 386 8
v 387 19
v 388 19
v 389 10
v 390 20
v 391 9
v 392 16
v 393 29
v 394 3
v 395 31
v 396 7
v 397 32
v 398 11
v 399 28
v 400 14
v 401 14
v 402 22
v 403 9
v 404 15
v 405 29
v 406 17
v 407 12
v 408 14
v 409 20
v 410 5
v 411 1
v 412 15
v 413 15
v 414 25
v 415 0
v 416 22
v 417 12
v 418 8
v 419 16
v 420 32
v 421 9
v 422 6
v 423 0
v 424 0
v 425 21
v 426 0
v 427 21
v 428 13
v 429 0
v 430 15
v 431 7
v 432 2
v 433 0
v 434 9
v 435 5
v 436 9
v 437 4
v 438 25
v 439 28
v 440 8
v 441 0
v 442 26
v 443 9
v 444 13
v 445 5
v 446 23
v 447 6
v 448 10
v 449 25
v 450 25
